
Log started (V22.2.0.0) Tue Jun  9 08:33:16 2026

New value for time limit in seconds: 120
New value for default parallel thread count: 4
New value for mixed integer optimality gap tolerance: 0.001
New value for level of mixed integer node display: 2

Problem 'results/InstanceB3_bigm_finsteps123.lp' read.
Read time = 0.00 sec. (0.04 ticks)
Version identifier: 22.2.0.0 | 2026-05-04 | 5dff98e58
CPXPARAM_Threads                                 4
CPXPARAM_TimeLimit                               120
CPXPARAM_MIP_Tolerances_MIPGap                   0.001
Tried aggregator 2 times.
MIP Presolve eliminated 9 rows and 9 columns.
MIP Presolve modified 2533 coefficients.
Aggregator did 84 substitutions.
Reduced MIP has 362 rows, 231 columns, and 996 nonzeros.
Reduced MIP has 147 binaries, 0 generals, 0 SOSs, and 0 indicators.
Presolve time = 0.00 sec. (1.58 ticks)
Found incumbent of value 15.000000 after 0.00 sec. (2.06 ticks)
Probing time = 0.00 sec. (0.94 ticks)
Tried aggregator 1 time.
Detecting symmetries...
MIP Presolve modified 3 coefficients.
Reduced MIP has 362 rows, 231 columns, and 996 nonzeros.
Reduced MIP has 147 binaries, 0 generals, 0 SOSs, and 0 indicators.
Presolve time = 0.00 sec. (0.57 ticks)
Probing time = 0.00 sec. (0.90 ticks)
Clique table members: 277.
MIP emphasis: balance optimality and feasibility.
MIP search method: dynamic search.
Parallel mode: deterministic, using up to 4 threads.
Root relaxation solution time = 0.00 sec. (1.09 ticks)

        Nodes                                         Cuts/
   Node  Left     Objective  IInf  Best Integer    Best Bound    ItCnt     Gap

*     0+    0                           15.0000        4.0000            73.33%
*     0+    0                           12.0000        4.0000            66.67%
      0     0        4.0000     3       12.0000        4.0000       89   66.67%
*     0+    0                            7.0000        4.0000            42.86%
      0     0        5.0000     1        7.0000      Cuts: 18      127   28.57%
*     0+    0                            5.0000        5.0000             0.00%
      0     0        cutoff              5.0000        5.0000      127    0.00%
Elapsed time = 0.01 sec. (8.74 ticks, tree = 0.01 MB, solutions = 4)

Clique cuts applied:  4
Implied bound cuts applied:  11
Mixed integer rounding cuts applied:  1

Root node processing (before b&c):
  Real time             =    0.01 sec. (8.76 ticks)
Parallel b&c, 4 threads:
  Real time             =    0.00 sec. (0.00 ticks)
  Sync time (average)   =    0.00 sec.
  Wait time (average)   =    0.00 sec.
                          ------------
Total (root+branch&cut) =    0.01 sec. (8.76 ticks)

Solution pool: 4 solutions saved.

MIP - Integer optimal solution:  Objective =  5.0000000000e+00
Solution time =    0.01 sec.  Iterations = 127  Nodes = 0
Deterministic time = 8.76 ticks  (912.87 ticks/sec)


Incumbent solution written to file 'results/InstanceB3_bigm_finsteps123.sol'.
